language Essence 1.3

letting class be
        function(1 --> 14, 2 --> 8, 3 --> 16, 4 --> 9, 5 --> 4, 6 --> 6, 7 --> 10, 8 --> 5, 9 --> 16, 10 --> 16,
                 11 --> 4, 12 --> 2, 13 --> 10, 14 --> 13, 15 --> 15, 16 --> 15, 17 --> 9, 18 --> 10, 19 --> 11,
                 20 --> 2, 21 --> 13, 22 --> 16, 23 --> 13, 24 --> 7, 25 --> 3, 26 --> 7, 27 --> 14, 28 --> 5, 29 --> 7,
                 30 --> 14, 31 --> 4, 32 --> 9, 33 --> 12, 34 --> 7, 35 --> 11, 36 --> 5, 37 --> 8, 38 --> 3, 39 --> 6,
                 40 --> 16, 41 --> 6, 42 --> 7, 43 --> 11, 44 --> 12, 45 --> 4, 46 --> 7, 47 --> 15, 48 --> 9, 49 --> 9,
                 50 --> 16, 51 --> 9, 52 --> 6, 53 --> 1)
letting deck_length be 118
letting deck_width be 81
letting length be
        function(1 --> 2, 2 --> 1, 3 --> 1, 4 --> 2, 5 --> 1, 6 --> 1, 7 --> 1, 8 --> 1, 9 --> 1, 10 --> 1, 11 --> 1,
                 12 --> 1, 13 --> 1, 14 --> 1, 15 --> 1, 16 --> 1, 17 --> 3, 18 --> 1, 19 --> 7, 20 --> 4, 21 --> 1,
                 22 --> 1, 23 --> 8, 24 --> 18, 25 --> 1, 26 --> 1, 27 --> 9, 28 --> 2, 29 --> 1, 30 --> 1, 31 --> 2,
                 32 --> 1, 33 --> 6, 34 --> 1, 35 --> 11, 36 --> 1, 37 --> 1, 38 --> 1, 39 --> 1, 40 --> 1, 41 --> 1,
                 42 --> 8, 43 --> 2, 44 --> 1, 45 --> 1, 46 --> 1, 47 --> 1, 48 --> 22, 49 --> 1, 50 --> 1, 51 --> 1,
                 52 --> 1, 53 --> 1)
letting n_classes be 16
letting n_containers be 53
letting separation be function({12, 14} --> 60, {13, 14} --> 75)
letting width be
        function(1 --> 48, 2 --> 1, 3 --> 14, 4 --> 75, 5 --> 1, 6 --> 1, 7 --> 7, 8 --> 45, 9 --> 1, 10 --> 19,
                 11 --> 22, 12 --> 3, 13 --> 1, 14 --> 42, 15 --> 50, 16 --> 1, 17 --> 59, 18 --> 1, 19 --> 76,
                 20 --> 67, 21 --> 23, 22 --> 1, 23 --> 67, 24 --> 72, 25 --> 1, 26 --> 1, 27 --> 61, 28 --> 6,
                 29 --> 50, 30 --> 41, 31 --> 65, 32 --> 1, 33 --> 60, 34 --> 32, 35 --> 73, 36 --> 11, 37 --> 1,
                 38 --> 22, 39 --> 1, 40 --> 2, 41 --> 1, 42 --> 65, 43 --> 1, 44 --> 30, 45 --> 61, 46 --> 54,
                 47 --> 60, 48 --> 71, 49 --> 27, 50 --> 1, 51 --> 1, 52 --> 1, 53 --> 21)
